
Gurobi 11.0.3 (win64, Python) logging started Thu Sep  5 11:01:37 2024

Set parameter Username
Set parameter LogFile to value "gurobi.log"

Gurobi 11.0.3 (win64, Python) logging started Thu Sep  5 11:07:27 2024

Set parameter Username
Set parameter LogFile to value "gurobi.log"
